decision_x1=[0,2];
decision_x2=[0,2];
decision_x3=[0,2];
decision_x4=[0,2];
decision_x5=[0,2];
decision_x6=[0,2];
decision_x7=[0,2];
decision_x8=[0,2];
decision_x9=[0,2];
decision_x10=[0,2];
decision_x11=[0,2];
decision_x12=[0,2];
decision_x13=[0,2];
decision_x14=[0,2];
decision_x15=[0,2];
random_y1=[0,2];
random_y2=[0,2];
random_y3=[0,2];
constraint_x2_x1=[
0,0,10|
0,1,4.3|
0,2,4.3|
1,0,4.5|
1,1,7.5|
1,2,0.38|
2,0,7.6|
2,1,9.3|
2,2,7.1|
];
constraint_x3_x1=[
0,0,4.1|
0,1,1.1|
0,2,4.1|
1,0,8.4|
1,1,2.4|
1,2,2|
2,0,1.1|
2,1,8.6|
2,2,5|
];
constraint_x4_x3=[
0,0,0.024|
0,1,2.5|
0,2,4.1|
1,0,3.6|
1,1,3.4|
1,2,10|
2,0,7.1|
2,1,2.2|
2,2,0.27|
];
constraint_x5_x1=[
0,0,4.6|
0,1,8.9|
0,2,5.1|
1,0,0.66|
1,1,1.2|
1,2,2.4|
2,0,9.9|
2,1,2.7|
2,2,4.5|
];
constraint_x5_x3=[
0,0,9.1|
0,1,8.5|
0,2,2|
1,0,8.4|
1,1,2.1|
1,2,2.9|
2,0,0.047|
2,1,0.42|
2,2,6.5|
];
constraint_x6_x3=[
0,0,5.9|
0,1,5.8|
0,2,3.8|
1,0,2.6|
1,1,1.3|
1,2,6.5|
2,0,0.086|
2,1,7.9|
2,2,9.9|
];
constraint_x6_x4=[
0,0,9|
0,1,9.5|
0,2,7.8|
1,0,1.2|
1,1,9.6|
1,2,3.5|
2,0,7.5|
2,1,5.7|
2,2,3.7|
];
constraint_x7_x1=[
0,0,3.2|
0,1,2.9|
0,2,6.1|
1,0,1.9|
1,1,5.8|
1,2,4.7|
2,0,1.9|
2,1,6.9|
2,2,7|
];
constraint_x7_x4=[
0,0,4.8|
0,1,3.5|
0,2,9.2|
1,0,6.6|
1,1,7.2|
1,2,8.8|
2,0,2.8|
2,1,9.3|
2,2,8.9|
];
constraint_x7_x5=[
0,0,6.8|
0,1,4.7|
0,2,7.9|
1,0,8.7|
1,1,7.8|
1,2,2.3|
2,0,6.1|
2,1,6.8|
2,2,4.2|
];
constraint_x7_x6=[
0,0,9.6|
0,1,5.9|
0,2,7.9|
1,0,1.4|
1,1,4.3|
1,2,5.4|
2,0,4.1|
2,1,2.3|
2,2,2|
];
constraint_x8_x2=[
0,0,8.1|
0,1,5.5|
0,2,2|
1,0,3.8|
1,1,7.8|
1,2,9.2|
2,0,4.8|
2,1,8.3|
2,2,2.8|
];
constraint_x8_x3=[
0,0,1.4|
0,1,9.6|
0,2,3.3|
1,0,0.0032|
1,1,8.8|
1,2,2.8|
2,0,8.2|
2,1,2.3|
2,2,5.5|
];
constraint_x8_x4=[
0,0,3.4|
0,1,2.1|
0,2,9|
1,0,8.4|
1,1,0.91|
1,2,0.89|
2,0,8.5|
2,1,8.1|
2,2,7.7|
];
constraint_x8_x6=[
0,0,5.6|
0,1,6.8|
0,2,6.8|
1,0,3.1|
1,1,4.2|
1,2,1.6|
2,0,7|
2,1,9.8|
2,2,4.6|
];
constraint_x8_x7=[
0,0,3.3|
0,1,2.5|
0,2,8.9|
1,0,2.9|
1,1,7.4|
1,2,6|
2,0,9.5|
2,1,2.8|
2,2,9.2|
];
constraint_x9_x1=[
0,0,0.99|
0,1,7.3|
0,2,6.6|
1,0,6|
1,1,4.7|
1,2,7.8|
2,0,8.2|
2,1,8.4|
2,2,4.4|
];
constraint_x9_x5=[
0,0,4.8|
0,1,5.8|
0,2,7.6|
1,0,6.4|
1,1,0.13|
1,2,8.9|
2,0,6.3|
2,1,6.8|
2,2,3.8|
];
constraint_x9_x6=[
0,0,1.9|
0,1,7.7|
0,2,2.6|
1,0,2|
1,1,0.32|
1,2,3.3|
2,0,6.1|
2,1,7.2|
2,2,5.1|
];
constraint_x9_x7=[
0,0,1.9|
0,1,4.8|
0,2,1.8|
1,0,9.4|
1,1,2.4|
1,2,6.1|
2,0,0.23|
2,1,2.9|
2,2,3.9|
];
constraint_x10_x5=[
0,0,0.61|
0,1,5.9|
0,2,3.6|
1,0,2.7|
1,1,9.3|
1,2,7.6|
2,0,8.3|
2,1,6.9|
2,2,2.2|
];
constraint_x11_x1=[
0,0,0.82|
0,1,2.8|
0,2,1.1|
1,0,5.1|
1,1,4.1|
1,2,8.7|
2,0,7.6|
2,1,7.7|
2,2,8.2|
];
constraint_x11_x3=[
0,0,2.3|
0,1,8.7|
0,2,4.9|
1,0,5.5|
1,1,9.6|
1,2,7.3|
2,0,7.5|
2,1,1.2|
2,2,5.7|
];
constraint_x11_x5=[
0,0,6.9|
0,1,8.2|
0,2,6.9|
1,0,2.6|
1,1,7.6|
1,2,1.7|
2,0,3.8|
2,1,2.7|
2,2,7|
];
constraint_x11_x6=[
0,0,0.64|
0,1,2.5|
0,2,4.2|
1,0,4.9|
1,1,3.9|
1,2,9|
2,0,7.5|
2,1,0.93|
2,2,5.3|
];
constraint_x11_x7=[
0,0,2.6|
0,1,9.3|
0,2,0.28|
1,0,3.8|
1,1,7.4|
1,2,2.3|
2,0,4.3|
2,1,5.8|
2,2,3.2|
];
constraint_x11_x8=[
0,0,5.3|
0,1,4.7|
0,2,6.2|
1,0,8.8|
1,1,1.6|
1,2,3.7|
2,0,6.5|
2,1,3.4|
2,2,7.1|
];
constraint_x11_x9=[
0,0,9.9|
0,1,7.3|
0,2,4.3|
1,0,0.85|
1,1,2|
1,2,4.2|
2,0,2.3|
2,1,5.2|
2,2,0.66|
];
constraint_x12_x1=[
0,0,8|
0,1,2.2|
0,2,4|
1,0,4.8|
1,1,3.1|
1,2,0.78|
2,0,1.2|
2,1,2.8|
2,2,7.4|
];
constraint_x12_x6=[
0,0,1.9|
0,1,9|
0,2,4.7|
1,0,5.8|
1,1,8|
1,2,9.6|
2,0,3.5|
2,1,2.2|
2,2,9.1|
];
constraint_x12_x8=[
0,0,4|
0,1,5|
0,2,9.5|
1,0,2.7|
1,1,5.6|
1,2,5.8|
2,0,4.1|
2,1,1.3|
2,2,4.9|
];
constraint_x12_x11=[
0,0,0.93|
0,1,1.9|
0,2,4|
1,0,4.4|
1,1,3.2|
1,2,5.3|
2,0,6.7|
2,1,6.9|
2,2,3.9|
];
constraint_x13_x2=[
0,0,4.6|
0,1,3|
0,2,6.2|
1,0,5.8|
1,1,4|
1,2,7.8|
2,0,6.2|
2,1,6.4|
2,2,7.1|
];
constraint_x13_x5=[
0,0,2|
0,1,9.4|
0,2,1.4|
1,0,3.6|
1,1,8.4|
1,2,8.8|
2,0,2.2|
2,1,4.4|
2,2,5|
];
constraint_x13_x7=[
0,0,3.8|
0,1,6.4|
0,2,4.3|
1,0,2.7|
1,1,2.7|
1,2,9.5|
2,0,4.9|
2,1,3|
2,2,0.38|
];
constraint_x13_x10=[
0,0,8.1|
0,1,3.8|
0,2,2.1|
1,0,8.7|
1,1,4|
1,2,5.3|
2,0,7.4|
2,1,8.1|
2,2,9|
];
constraint_x13_x11=[
0,0,5.3|
0,1,7.6|
0,2,4.8|
1,0,4|
1,1,8.1|
1,2,8.3|
2,0,5.9|
2,1,8.5|
2,2,0.7|
];
constraint_x14_x1=[
0,0,9.5|
0,1,2.6|
0,2,7.4|
1,0,0.85|
1,1,0.32|
1,2,3.6|
2,0,0.84|
2,1,6.2|
2,2,3|
];
constraint_x14_x3=[
0,0,3.2|
0,1,0.8|
0,2,9.1|
1,0,9.6|
1,1,0.75|
1,2,1.6|
2,0,5.4|
2,1,0.037|
2,2,7.7|
];
constraint_x14_x4=[
0,0,5|
0,1,3.8|
0,2,9.1|
1,0,4.6|
1,1,4.9|
1,2,0.23|
2,0,2.6|
2,1,0.069|
2,2,0.63|
];
constraint_x14_x6=[
0,0,4.1|
0,1,9.6|
0,2,9.5|
1,0,9.7|
1,1,8.8|
1,2,8.1|
2,0,0.047|
2,1,7.1|
2,2,6.6|
];
constraint_x14_x7=[
0,0,0.24|
0,1,8.4|
0,2,3.3|
1,0,9.6|
1,1,5.5|
1,2,0.42|
2,0,3.2|
2,1,4.5|
2,2,4.2|
];
constraint_x14_x11=[
0,0,7.8|
0,1,6.7|
0,2,5.2|
1,0,7.6|
1,1,2|
1,2,2|
2,0,2.5|
2,1,6|
2,2,2.2|
];
constraint_x14_x12=[
0,0,3.4|
0,1,3|
0,2,0.37|
1,0,7.3|
1,1,6.4|
1,2,9.8|
2,0,9|
2,1,1.8|
2,2,1.6|
];
constraint_x15_x2=[
0,0,0.58|
0,1,3.7|
0,2,8.5|
1,0,4.3|
1,1,2|
1,2,3.1|
2,0,0.79|
2,1,9.1|
2,2,0.99|
];
constraint_x15_x4=[
0,0,4.2|
0,1,3.3|
0,2,0.32|
1,0,1|
1,1,6|
1,2,0.6|
2,0,2.6|
2,1,4.3|
2,2,6|
];
constraint_x15_x5=[
0,0,1.2|
0,1,0.85|
0,2,1|
1,0,9.8|
1,1,7.9|
1,2,4.7|
2,0,3|
2,1,7|
2,2,4.8|
];
constraint_x15_x7=[
0,0,0.0064|
0,1,8.5|
0,2,1.7|
1,0,9.3|
1,1,5|
1,2,7.9|
2,0,5.4|
2,1,7.3|
2,2,8.7|
];
constraint_x15_x8=[
0,0,8.5|
0,1,3.2|
0,2,2.5|
1,0,7.8|
1,1,9.8|
1,2,1.8|
2,0,9.3|
2,1,6.3|
2,2,9.6|
];
constraint_x15_x9=[
0,0,2.2|
0,1,8.2|
0,2,9.1|
1,0,4|
1,1,8.1|
1,2,7|
2,0,6.6|
2,1,8.3|
2,2,2.2|
];
constraint_x15_x11=[
0,0,5.6|
0,1,3.2|
0,2,0.26|
1,0,1.4|
1,1,8|
1,2,0.5|
2,0,9.5|
2,1,6.7|
2,2,1.1|
];
constraint_x15_x12=[
0,0,6.3|
0,1,8.1|
0,2,8.3|
1,0,7|
1,1,8.6|
1,2,1.7|
2,0,0.46|
2,1,5.1|
2,2,7.7|
];
constraint_x15_x13=[
0,0,3.7|
0,1,1.6|
0,2,1.7|
1,0,6|
1,1,5.4|
1,2,3.9|
2,0,8.9|
2,1,7.6|
2,2,9.9|
];
constraint_x1_y1=[
0,0,8.6|
0,1,8.3|
0,2,0.53|
1,0,3.9|
1,1,6.8|
1,2,7.6|
2,0,0.01|
2,1,9.8|
2,2,2|
];
constraint_x2_y2=[
0,0,4.1|
0,1,3.4|
0,2,2.3|
1,0,9|
1,1,9.3|
1,2,1.5|
2,0,9.6|
2,1,4.6|
2,2,3.8|
];
constraint_x3_y3=[
0,0,4.8|
0,1,6.7|
0,2,5.1|
1,0,8.5|
1,1,6.9|
1,2,10|
2,0,6.9|
2,1,2.2|
2,2,2.7|
];
initial_distribution_y1=[0.27,0.56,0.17];
initial_distribution_y2=[0.25,0.26,0.49];
initial_distribution_y3=[0.28,0.61,0.11];
transition_y1=[
0.87,0.085,0.045|
0.82,0.061,0.12|
0.22,0.46,0.32|
];
transition_y2=[
0.072,0.28,0.65|
0.46,0.31,0.24|
0.4,0.25,0.35|
];
transition_y3=[
0.48,0.28,0.24|
0.012,0.16,0.82|
0.33,0.21,0.46|
];
